CMD:
./solvers/bin/cadical --plain --no-reduce -t 1600 ./data/cnfs//bobsynthor/bobsynthor.67.cnf

c --- [ banner ] -------------------------------------------------------------
c 
c CaDiCaL SAT Solver
c Copyright (c) 2016-2024
c A. Biere, M. Fleury, N. Froleyks, K. Fazekas, F. Pollitt, T. Faller
c JKU Linz, University of Freiburg, TU Wien
c 
c Version 2.1.3 5296d3d2a9bf48c154ab2acb5e44625776d821bf
c g++ (Gentoo 12.3.1_p20230526 p2) 12.3.1 20230526 -Wall -Wextra -O3 -DNDEBUG
c Sat Aug 9 07:26:21 PDT 2025 Linux cedar2.int.cedar.computecanada.ca 5.14.0-362.24.2.el9_3.x86_64 x86_64
c 
c --- [ limit ] --------------------------------------------------------------
c 
c setting time limit to 1600 seconds real time (due to '-t 1600')
c 
c --- [ parsing input ] ------------------------------------------------------
c 
c reading DIMACS file from './data/cnfs//bobsynthor/bobsynthor.67.cnf'
c opening file to read './data/cnfs//bobsynthor/bobsynthor.67.cnf'
c found 'p cnf 1061225 3143935' header
c parsed 3143935 clauses in 0.44 seconds process time
c 
c --- [ options ] ------------------------------------------------------------
c 
c   --compact=false                (different from default 'true')
c   --decompose=false              (different from default 'true')
c   --deduplicate=false            (different from default 'true')
c   --elim=false                   (different from default 'true')
c   --probe=false                  (different from default 'true')
c   --reduce=false                 (different from default 'true')
c   --subsume=false                (different from default 'true')
c   --ternary=false                (different from default 'true')
c   --transred=false               (different from default 'true')
c   --vivify=false                 (different from default 'true')
c 
c --- [ solving ] ------------------------------------------------------------
c 
c time measured in process time since initialization
c 
c  seconds   reductions  redundant   irredundant
c          MB    restarts       trail        variables
c           level   conflicts       glue           remaining
c 
c *  0.44 469  0 0   0    0    0  0% 0 2924586 931134 88%
c {  0.44 470  0 0   0    0    0  0% 0 2924586 931134 88%
c i  0.48 471 514 0  14  120  113 13% 2 2924586 931133 88%
c i  0.48 471 491 0  15  126  116 13% 2 2924586 931121 88%
c i  0.48 471 487 0  16  127  116 13% 2 2924586 931117 88%
c i  0.49 471 228 0  19  321  285 14% 2 2924586 931084 88%
c i  0.50 471 224 0  19  327  290 14% 2 2924586 931057 88%
c i  0.52 472 178 0  25  424  372 14% 2 2924586 925809 87%
c i  0.52 472 177 0  25  426  372 14% 2 2924586 924559 87%
c i  0.53 472 177 0  25  427  372 14% 2 2924586 924053 87%
c i  0.53 472 177 0  25  428  372 14% 2 2924586 921657 87%
c i  0.53 472 177 0  25  429  372 14% 2 2924586 916944 86%
c i  0.53 472 177 0  25  430  372 14% 2 2924586 915765 86%
c i  0.54 473 260 0  25  484  392 15% 2 2924586 915760 86%
c i  0.54 473 368 0  25  548  451 17% 2 2924586 915754 86%
c i  0.54 473 384 0  25  559  459 17% 2 2924586 915749 86%
c i  0.54 473 386 0  25  560  459 17% 2 2924586 915748 86%
c i  0.54 473 498 0  25  657  550 18% 2 2924586 915747 86%
c i  0.55 473 491 0  28  674  565 18% 2 2924586 915721 86%
c i  0.55 473 487 0  29  679  569 18% 2 2924586 915714 86%
c 
c  seconds    reductions  redundant   irredundant
c          MB     restarts       trail        variables
c            level   conflicts       glue           remaining
c 
c i  0.69 476 432 0  64  838  716 18% 2 2924586 915690 86%
c i  0.71 476 422 0  71  861  736 18% 3 2924586 915583 86%
c i  0.73 477 416 0  74  874  747 18% 3 2924586 912323 86%
c }  0.83 477 367 0  99 1000  865 18% 3 2924586 910897 86%
c [  0.83 477  0 0  99 1000  865  0% 0 2924586 910897 86%
c i  0.84 477 242 0  99 1001  865 17% 0 2924586 910859 86%
c ]  1.03 488 242 0  99 1001  865 17% 0 2924586 910859 86%
c 1  1.03 488 242 0  99 1001  865 17% 0 2924586 910859 86%
c 
c --- [ result ] -------------------------------------------------------------
c 
s SATISFIABLE
v 1 2 3 4 5 6 7 8 9 10 11 12 13 14 15 16 17 18 19 20 21 22 23 24 25 26 27 28
v 29 30 31 32 33 34 35 36 37 38 39 40 41 42 43 44 45 46 47 48 49 50 51 52 53
v 54 55 56 57 58 59 60 61 62 63 64 65 66 67 68 69 70 71 72 73 74 75 76 77 78
v 79 80 81 82 83 84 85 86 87 88 89 90 91 92 93 94 95 96 97 98 99 100 101 102
v 103 104 105 106 107 108 109 110 111 112 113 114 115 116 117 118 119 120 121
v 122 123 124 125 126 127 128 129 130 131 132 133 134 135 136 137 138 139 140
v 141 142 143 144 145 146 147 148 149 150 151 152 153 154 155 156 157 158 159
v 160 161 162 163 164 165 166 167 168 169 170 171 172 173 174 175 176 177 178
v 179 180 181 182 183 184 185 186 187 188 189 190 191 192 193 194 195 196 197
v 198 199 200 201 202 203 204 205 206 207 208 209 210 211 212 213 214 215 216
v 217 218 219 220 221 222 223 224 -225 -226 -227 -228 -229 -230 -231 -232 -233
v -234 -235 -236 -237 -238 -239 -240 -241 -242 -243 -244 -245 -246 -247 -248
v -249 -250 -251 -252 -253 -254 -255 -256 -257 -258 -259 -260 -261 -262 -263
v -264 -265 -266 -267 -268 -269 -270 -271 -272 -273 -274 -275 -276 -277 -278
v -279 -280 -281 -282 -283 -284 -285 -286 -287 -288 -289 -290 -291 -292 -293
v -294 -295 -296 -297 -298 -299 -300 -301 -302 -303 -304 -305 -306 -307 -308
v -309 -310 -311 -312 -313 -314 -315 -316 -317 -318 -319 -320 -321 -322 -323
... skipped 107315 lines ...
v 1060775 -1060776 1060777 1060778 1060779 1060780 1060781 1060782 -1060783
v 1060784 1060785 1060786 1060787 1060788 1060789 1060790 1060791 1060792
v 1060793 1060794 1060795 1060796 1060797 1060798 1060799 1060800 1060801
v -1060802 -1060803 -1060804 -1060805 -1060806 -1060807 -1060808 -1060809
v -1060810 -1060811 -1060812 -1060813 -1060814 -1060815 -1060816 -1060817
v -1060818 -1060819 -1060820 -1060821 -1060822 -1060823 -1060824 -1060825
v -1060826 -1060827 -1060828 -1060829 -1060830 -1060831 -1060832 -1060833
v -1060834 -1060835 -1060836 -1060837 -1060838 1060839 -1060840 1060841
v 1060842 1060843 1060844 1060845 1060846 1060847 1060848 1060849 1060850
v 1060851 1060852 1060853 1060854 1060855 1060856 1060857 1060858 1060859
v 1060860 1060861 1060862 1060863 1060864 1060865 1060866 1060867 1060868
v 1060869 1060870 1060871 1060872 1060873 1060874 1060875 1060876 1060877
v 1060878 1060879 1060880 1060881 1060882 1060883 1060884 1060885 1060886
v 1060887 1060888 1060889 1060890 1060891 1060892 1060893 1060894 1060895
v 1060896 1060897 1060898 1060899 1060900 1060901 1060902 1060903 1060904
v 1060905 1060906 1060907 1060908 1060909 1060910 1060911 1060912 1060913
v 1060914 1060915 1060916 1060917 1060918 1060919 1060920 1060921 1060922
v 1060923 1060924 1060925 1060926 1060927 1060928 1060929 1060930 1060931
v 1060932 1060933 1060934 1060935 1060936 1060937 1060938 1060939 1060940
v 1060941 1060942 1060943 1060944 1060945 1060946 1060947 1060948 1060949
v 1060950 1060951 1060952 1060953 1060954 1060955 1060956 1060957 1060958
v 1060959 1060960 1060961 1060962 1060963 1060964 1060965 1060966 1060967
v 1060968 1060969 1060970 1060971 1060972 -1060973 -1060974 -1060975 -1060976
v 1060977 1060978 -1060979 -1060980 -1060981 -1060982 1060983 1060984 1060985
v 1060986 -1060987 -1060988 1060989 -1060990 1060991 1060992 1060993 1060994
v 1060995 1060996 1060997 1060998 -1060999 -1061000 -1061001 -1061002 1061003
v 1061004 -1061005 -1061006 -1061007 -1061008 1061009 1061010 -1061011
v -1061012 1061013 -1061014 1061015 -1061016 1061017 1061018 1061019 1061020
v 1061021 1061022 1061023 1061024 -1061025 -1061026 -1061027 -1061028 1061029
v -1061030 -1061031 -1061032 1061033 1061034 1061035 1061036 -1061037 -1061038
v -1061039 -1061040 1061041 1061042 -1061043 -1061044 -1061045 -1061046
v 1061047 1061048 1061049 1061050 -1061051 -1061052 -1061053 -1061054 1061055
v 1061056 -1061057 -1061058 -1061059 -1061060 1061061 1061062 1061063 1061064
v 1061065 1061066 -1061067 -1061068 -1061069 -1061070 1061071 1061072 -1061073
v -1061074 -1061075 -1061076 1061077 1061078 -1061079 -1061080 -1061081
v -1061082 1061083 1061084 -1061085 -1061086 -1061087 -1061088 -1061089
v 1061090 -1061091 1061092 -1061093 1061094 -1061095 1061096 -1061097 1061098
v -1061099 1061100 -1061101 1061102 -1061103 1061104 1061105 -1061106 -1061107
v 1061108 -1061109 1061110 -1061111 1061112 -1061113 1061114 -1061115 -1061116
v -1061117 -1061118 -1061119 -1061120 -1061121 1061122 1061123 -1061124
v 1061125 1061126 1061127 1061128 1061129 1061130 1061131 1061132 1061133
v 1061134 1061135 1061136 1061137 1061138 -1061139 1061140 -1061141 1061142
v 1061143 1061144 1061145 1061146 1061147 1061148 1061149 1061150 1061151
v 1061152 1061153 1061154 1061155 1061156 1061157 1061158 1061159 1061160
v 1061161 1061162 1061163 1061164 1061165 1061166 1061167 1061168 1061169
v 1061170 1061171 1061172 1061173 1061174 1061175 1061176 1061177 1061178
v 1061179 1061180 1061181 -1061182 -1061183 -1061184 1061185 1061186 -1061187
v -1061188 -1061189 1061190 -1061191 -1061192 -1061193 -1061194 1061195
v 1061196 -1061197 1061198 1061199 1061200 1061201 1061202 1061203 -1061204
v 1061205 1061206 -1061207 1061208 1061209 1061210 1061211 1061212 1061213
v 1061214 1061215 1061216 1061217 1061218 1061219 1061220 1061221 1061222
v 1061223 1061224 -1061225 0
c 
c --- [ run-time profiling ] -------------------------------------------------
c 
c process time taken by individual solving procedures
c (percentage relative to process time for solving)
c 
c         0.59   99.98% search
c         0.44   74.70% parse
c         0.39   65.69% unstable
c         0.20   33.50% stable
c         0.00    0.78% lucky
c         0.00    0.00% simplify
c   =================================
c         0.59   54.73% solve
c 
c last line shows process time for solving
c (percentage relative to total process time)
c 
c --- [ statistics ] ---------------------------------------------------------
c 
c chronological:               420        41.96 %  of conflicts
c conflicts:                  1001      1703.00    per second
c decisions:                 30925     52612.78    per second
c fixed:                    150304        14.16 %  of all variables
c learned:                     924        92.31 %  per conflict
c learned_lits:               5648       100.00 %  learned literals
c minimized:                     0         0.00 %  learned literals
c shrunken:                    580        10.27 %  learned literals
c minishrunken:                261         4.62 %  learned literals
c otfs:                         34         3.40 %  of conflict
c propagations:            6366333        10.83 M  per second
c rephased:                      1      1001.00    interval
c restarts:                     99        10.11    interval
c stabilizing:                   1         0.10 %  of conflicts
c subsumed:                     33         0.00 %  of all clauses
c strengthened:                 34         0.00 %  of all clauses
c 
c seconds are measured in process time for solving
c 
c --- [ resources ] ----------------------------------------------------------
c 
c total process time since initialization:         1.07    seconds
c total real time since initialization:            1.09    seconds
c maximum resident set size of process:          485.69    MB
c 
c --- [ shutting down ] ------------------------------------------------------
c 
c exit 10
